Optimal - objective value 757.00000000
      0 C_0                    37                       0
      1 C_1       6.99999999999999                       0
      2 C_2       62.9999999999999                       0
      3 C_3                    50                       0
      4 C_4                    23                       0
      5 C_5       9.99999999999999                       0
      6 C_6       59.9999999999999                       0
      7 C_7       27.9999999999999                       0
      9 x_0_1                   1                    2376
     11 x_1_1                   1                    6072
     13 x_2_1                   1                     264
     15 x_3_1                   1                    1056
     17 x_4_1                   1                    4224
     18 x_5_0                   1                    5544
     20 x_6_0                   1                     792
     22 x_7_0                   1                    2904
     27 d_0_2_1                 1                       0
     29 d_0_3_1                 1                     792
     34 d_0_6_0                 1                       0
     35 d_0_6_1                 1                       0
     36 d_0_7_0                 1                       0
     38 d_1_2_0                 1                       0
     39 d_1_2_1                 1                       0
     40 d_1_3_0                 1                       0
     41 d_1_3_1                 1                       0
     43 d_1_4_1                 1                    2640
     45 d_1_5_1                 1                       0
     46 d_1_6_0                 1                       0
     47 d_1_6_1                 1                       0
     48 d_1_7_0                 1                       0
     49 d_1_7_1                 1                       0
     50 d_2_3_0                 1                       0
     56 d_2_6_0                 1                       0
     57 d_2_6_1                 1                       0
     64 d_3_6_0                 1                       0
     65 d_3_6_1                 1                       0
     69 d_4_5_1                 1                       0
     70 d_4_6_0                 1                       0
     71 d_4_6_1                 1                       0
     72 d_4_7_0                 1                       0
     73 d_4_7_1                 1                       0
     74 d_5_6_0                 1                       0
     75 d_5_6_1                 1                       0
     76 d_5_7_0                 1                    2112
